300,25
207,331
415,448
444,369
521,325
639,140
718,169
560,494
593,420
709,415
575,352
718,169
829,258
918,443
762,566
602,909
778,476
926,-75
524,-79
810,7
448,173
300,25
317,142
448,173
521,325
548,474
521,487
734,379
698,382
778,336
734,379
698,382
453,332
339,295
207,331
444,369
463,564
436,887
545,673
560,494
593,420
488,672
762,566
948,542
1023,517
838,891
963,794
1184,485
822,600
1023,517
